n = 600;

m = 6;

p = [100, 100, 100, 100, 100, 100];

v = [0.0, 0.2, 0.4, 0.6, 0.8, 1.0];

c = array2d(1..m, 1..m, [
    0.0, 15.0, 30.0, 45.0, 60.0, 75.0,
    15.0, 0.0, 15.0, 30.0, 45.0, 60.0,
    30.0, 15.0, 0.0, 15.0, 30.0, 45.0,
    45.0, 30.0, 15.0, 0.0, 15.0, 30.0,
    60.0, 45.0, 30.0, 15.0, 0.0, 15.0,
    75.0, 60.0, 45.0, 30.0, 15.0, 0.0
]);

ce = [3.0, 3.0, 3.0, 3.0, 3.0, 3.0];

ct = 150.0;

maxM = 8;
